Automatic mesh
0
Monkhorst-pack
14 14 14
0 0 0
