Si 
   1.0
    -2.7343639999999998    2.7343639999999998   -0.0000000000000000
     2.7343639999999998    0.0000000000000000   -2.7343639999999998
    -2.7343639999999998   -2.7343639999999998   -0.0000000000000000
   2
Direct
  0.5000000000000000  0.0000000000000000  0.5000000000000000
  0.2500000000000000  0.5000000000000000  0.7500000000000000
